690025
0,71,62,31,117,70,48,162,177,30,198,158,207,2,184,188,15,59,137,136,116,19,182,209,6,35,228,132,154,111,26,168,39,80,129,101,61,86,34,93,107,49,27,150,54,77,214,74,204,33,36,191,178,195,106,88,115,160,183,100,8,67,165,95,90,21,25,143,144,210,155,4,43,63,29,14,7,119,96,193,12,219,175,222,16,46,224,47,110,133,18,226,124,45,213,164,13,109,200,9,197,199,64,153,163,196,142,10,138,57,58,220,51,212,92,167,171,203,44,211,229,103,5,202,37,223,32,128,152,216,20,3,141,169,149,170,185,89,108,227,87,145,11,186,102,81,1,114,131,79,122,24,181,60,130,123,187,84,166,78,94,56,75,173,28,83,192,194,118,113,190,151,121,176,68,22,225,50,97,41,159,112,72,208,125,69,85,217,205,135,180,172,147,148,157,179,120,76,221,40,127,105,140,218,189,98,201,174,53,55,17,91,52,99,215,104,65,23,42,126,146,66,206,38,73,156,82,139,134,161,0